
  32    1
  10

   0   0   3 2 4 6 
   4   6   1 3 
   9   6   2 10 5 
   1   7   3 10 9 8 
   7   7   3 11 9 7 
   3   9   4 16 13 11 9 
   4  10   4 16 15 13 12 
   3   6   3 16 15 11 
   4  10   2 15 12 
  10  10   2 13 12 
   5   8   1 12 
   1  10   3 19 17 14 
   2   8   6 25 24 23 21 19 18 
   3  10   5 25 24 23 21 18 
   7  10   5 24 23 21 19 18 
   4  10   5 25 23 21 19 18 
   5   6   4 25 24 21 18 
   4   7   4 31 29 22 20 
   8   4   3 30 29 22 
   3   8   3 30 28 26 
  10   5   3 31 29 27 
   9   8   2 28 26 
   1   9   2 28 26 
   6   8   2 29 28 
   3   6   2 28 27 
   4  10   1 27 
   7  10   1 32
   5   7   1 32
  10  10   1 32
   8   5   1 32
   8  10   1 32
   0   0   0 
